c Reduced graph for GEOM110b generated by Cyril Grelier
p edge 110 1256
e 1 2
e 1 3
e 1 4
e 1 5
e 1 6
e 1 7
e 1 8
e 1 9
e 1 10
e 1 11
e 1 12
e 1 15
e 1 16
e 1 17
e 1 19
e 1 38
e 1 39
e 1 40
e 1 41
e 1 42
e 1 43
e 1 44
e 1 45
e 1 46
e 1 47
e 1 50
e 1 52
e 1 54
e 1 56
e 1 75
e 1 76
e 1 77
e 1 78
e 1 79
e 1 80
e 1 82
e 1 84
e 1 90
e 1 91
e 2 3
e 2 4
e 2 5
e 2 6
e 2 7
e 2 8
e 2 9
e 2 11
e 2 12
e 2 13
e 2 15
e 2 16
e 2 19
e 2 24
e 2 38
e 2 40
e 2 41
e 2 42
e 2 43
e 2 45
e 2 75
e 2 76
e 2 77
e 2 78
e 2 79
e 2 80
e 2 81
e 2 82
e 2 84
e 2 86
e 2 90
e 2 91
e 2 92
e 2 95
e 2 96
e 3 4
e 3 5
e 3 6
e 3 7
e 3 8
e 3 9
e 3 11
e 3 14
e 3 15
e 3 26
e 3 37
e 3 38
e 3 39
e 3 41
e 3 42
e 3 49
e 3 76
e 3 77
e 3 78
e 3 79
e 3 80
e 3 81
e 3 83
e 3 85
e 3 86
e 3 87
e 3 88
e 3 89
e 3 92
e 3 93
e 3 94
e 4 5
e 4 6
e 4 7
e 4 8
e 4 9
e 4 10
e 4 11
e 4 12
e 4 15
e 4 17
e 4 37
e 4 38
e 4 39
e 4 40
e 4 41
e 4 42
e 4 46
e 4 75
e 4 76
e 4 77
e 4 78
e 4 79
e 4 80
e 4 81
e 4 82
e 4 83
e 4 84
e 4 86
e 4 87
e 4 92
e 5 6
e 5 7
e 5 11
e 5 13
e 5 15
e 5 21
e 5 27
e 5 38
e 5 40
e 5 41
e 5 42
e 5 53
e 5 59
e 5 77
e 5 78
e 5 79
e 5 81
e 5 82
e 5 84
e 5 86
e 5 87
e 5 91
e 5 92
e 5 93
e 5 95
e 5 97
e 5 98
e 5 105
e 6 7
e 6 8
e 6 9
e 6 11
e 6 12
e 6 13
e 6 15
e 6 37
e 6 38
e 6 40
e 6 41
e 6 42
e 6 75
e 6 76
e 6 77
e 6 78
e 6 79
e 6 80
e 6 81
e 6 82
e 6 83
e 6 84
e 6 86
e 6 87
e 6 89
e 6 92
e 6 93
e 7 8
e 7 9
e 7 11
e 7 12
e 7 13
e 7 15
e 7 37
e 7 38
e 7 40
e 7 41
e 7 42
e 7 75
e 7 76
e 7 77
e 7 78
e 7 79
e 7 80
e 7 81
e 7 82
e 7 83
e 7 84
e 7 86
e 7 87
e 7 89
e 7 92
e 7 93
e 8 9
e 8 11
e 8 14
e 8 15
e 8 17
e 8 18
e 8 28
e 8 37
e 8 39
e 8 41
e 8 42
e 8 46
e 8 48
e 8 51
e 8 75
e 8 76
e 8 78
e 8 79
e 8 80
e 8 83
e 8 85
e 8 87
e 8 88
e 8 92
e 8 94
e 9 10
e 9 11
e 9 14
e 9 15
e 9 17
e 9 28
e 9 37
e 9 39
e 9 41
e 9 42
e 9 46
e 9 48
e 9 56
e 9 60
e 9 64
e 9 75
e 9 76
e 9 78
e 9 79
e 9 80
e 9 83
e 9 85
e 9 94
e 10 12
e 10 16
e 10 17
e 10 28
e 10 39
e 10 43
e 10 44
e 10 45
e 10 46
e 10 47
e 10 50
e 10 56
e 10 58
e 10 63
e 10 64
e 10 65
e 10 67
e 10 75
e 10 76
e 10 78
e 10 80
e 10 90
e 10 100
e 10 102
e 10 103
e 10 104
e 10 106
e 11 13
e 11 15
e 11 26
e 11 38
e 11 40
e 11 41
e 11 42
e 11 49
e 11 76
e 11 77
e 11 78
e 11 79
e 11 81
e 11 84
e 11 86
e 11 87
e 11 88
e 11 89
e 11 92
e 11 93
e 11 97
e 12 16
e 12 17
e 12 19
e 12 24
e 12 38
e 12 43
e 12 44
e 12 45
e 12 46
e 12 47
e 12 50
e 12 52
e 12 54
e 12 58
e 12 75
e 12 76
e 12 78
e 12 82
e 12 90
e 12 91
e 12 100
e 12 102
e 12 103
e 12 104
e 13 15
e 13 21
e 13 24
e 13 27
e 13 33
e 13 35
e 13 38
e 13 40
e 13 53
e 13 59
e 13 62
e 13 68
e 13 77
e 13 79
e 13 81
e 13 82
e 13 84
e 13 86
e 13 91
e 13 95
e 13 96
e 13 97
e 13 98
e 13 105
e 13 107
e 14 18
e 14 20
e 14 22
e 14 23
e 14 25
e 14 26
e 14 29
e 14 31
e 14 37
e 14 39
e 14 41
e 14 42
e 14 48
e 14 51
e 14 55
e 14 57
e 14 60
e 14 61
e 14 80
e 14 83
e 14 85
e 14 87
e 14 88
e 14 89
e 14 94
e 14 99
e 14 101
e 15 38
e 15 40
e 15 41
e 15 42
e 15 49
e 15 76
e 15 77
e 15 78
e 15 79
e 15 81
e 15 84
e 15 86
e 15 87
e 15 88
e 15 89
e 15 92
e 15 93
e 15 97
e 16 19
e 16 24
e 16 38
e 16 40
e 16 43
e 16 44
e 16 45
e 16 47
e 16 52
e 16 54
e 16 58
e 16 75
e 16 76
e 16 82
e 16 90
e 16 91
e 16 95
e 16 96
e 16 98
e 16 102
e 16 103
e 16 104
e 17 28
e 17 39
e 17 43
e 17 44
e 17 46
e 17 47
e 17 48
e 17 50
e 17 56
e 17 63
e 17 64
e 17 65
e 17 66
e 17 75
e 17 76
e 17 78
e 17 80
e 17 83
e 17 100
e 18 20
e 18 22
e 18 23
e 18 25
e 18 29
e 18 31
e 18 34
e 18 37
e 18 39
e 18 48
e 18 51
e 18 55
e 18 57
e 18 60
e 18 61
e 18 70
e 18 83
e 18 85
e 18 88
e 18 94
e 18 99
e 18 101
e 19 24
e 19 38
e 19 40
e 19 43
e 19 44
e 19 45
e 19 47
e 19 52
e 19 54
e 19 75
e 19 82
e 19 84
e 19 90
e 19 91
e 19 95
e 19 96
e 19 98
e 19 102
e 19 103
e 20 22
e 20 23
e 20 25
e 20 26
e 20 31
e 20 32
e 20 34
e 20 37
e 20 49
e 20 51
e 20 55
e 20 57
e 20 61
e 20 85
e 20 87
e 20 88
e 20 89
e 20 93
e 20 99
e 20 101
e 20 108
e 21 27
e 21 33
e 21 35
e 21 38
e 21 40
e 21 53
e 21 59
e 21 62
e 21 68
e 21 77
e 21 81
e 21 82
e 21 84
e 21 95
e 21 96
e 21 97
e 21 98
e 21 105
e 21 107
e 21 110
e 22 23
e 22 25
e 22 26
e 22 30
e 22 32
e 22 34
e 22 37
e 22 49
e 22 51
e 22 55
e 22 61
e 22 85
e 22 87
e 22 88
e 22 89
e 22 92
e 22 93
e 22 99
e 22 108
e 23 25
e 23 26
e 23 31
e 23 32
e 23 34
e 23 37
e 23 51
e 23 55
e 23 57
e 23 61
e 23 85
e 23 87
e 23 88
e 23 89
e 23 94
e 23 99
e 23 101
e 23 108
e 24 38
e 24 40
e 24 43
e 24 45
e 24 47
e 24 52
e 24 54
e 24 75
e 24 82
e 24 84
e 24 90
e 24 91
e 24 95
e 24 96
e 24 98
e 24 102
e 24 103
e 25 26
e 25 31
e 25 32
e 25 34
e 25 37
e 25 51
e 25 55
e 25 57
e 25 61
e 25 85
e 25 88
e 25 89
e 25 99
e 25 101
e 25 108
e 26 30
e 26 32
e 26 34
e 26 37
e 26 49
e 26 87
e 26 88
e 26 89
e 26 92
e 26 93
e 26 99
e 26 108
e 26 109
e 27 35
e 27 38
e 27 40
e 27 53
e 27 59
e 27 62
e 27 68
e 27 69
e 27 73
e 27 77
e 27 79
e 27 81
e 27 84
e 27 86
e 27 97
e 27 105
e 28 29
e 28 37
e 28 39
e 28 46
e 28 48
e 28 50
e 28 56
e 28 60
e 28 64
e 28 65
e 28 66
e 28 80
e 28 83
e 28 85
e 28 94
e 29 31
e 29 37
e 29 39
e 29 48
e 29 51
e 29 55
e 29 57
e 29 60
e 29 66
e 29 70
e 29 80
e 29 83
e 29 85
e 29 94
e 29 101
e 30 32
e 30 36
e 30 49
e 30 69
e 30 71
e 30 72
e 30 74
e 30 86
e 30 87
e 30 88
e 30 89
e 30 92
e 30 93
e 30 97
e 30 108
e 30 109
e 31 37
e 31 48
e 31 51
e 31 55
e 31 57
e 31 60
e 31 61
e 31 70
e 31 85
e 31 94
e 31 101
e 32 34
e 32 49
e 32 61
e 32 88
e 32 89
e 32 99
e 32 108
e 33 35
e 33 53
e 33 59
e 33 62
e 33 68
e 33 95
e 33 96
e 33 98
e 33 105
e 33 107
e 33 110
e 34 61
e 34 88
e 34 89
e 34 99
e 34 108
e 35 53
e 35 59
e 35 62
e 35 68
e 35 105
e 35 107
e 35 110
e 36 49
e 36 69
e 36 71
e 36 72
e 36 73
e 36 74
e 36 97
e 36 109
e 37 39
e 37 41
e 37 42
e 37 48
e 37 51
e 37 55
e 37 57
e 37 60
e 37 61
e 37 78
e 37 80
e 37 83
e 37 85
e 37 87
e 37 88
e 37 89
e 37 94
e 37 99
e 37 101
e 38 40
e 38 45
e 38 52
e 38 53
e 38 54
e 38 75
e 38 76
e 38 77
e 38 78
e 38 79
e 38 81
e 38 82
e 38 84
e 38 86
e 38 90
e 38 91
e 38 95
e 38 96
e 38 98
e 39 41
e 39 42
e 39 46
e 39 48
e 39 50
e 39 51
e 39 56
e 39 57
e 39 60
e 39 64
e 39 65
e 39 66
e 39 76
e 39 78
e 39 80
e 39 83
e 39 85
e 39 94
e 39 101
e 40 53
e 40 59
e 40 62
e 40 77
e 40 78
e 40 79
e 40 81
e 40 82
e 40 84
e 40 86
e 40 91
e 40 95
e 40 96
e 40 98
e 40 105
e 41 42
e 41 75
e 41 76
e 41 77
e 41 78
e 41 79
e 41 80
e 41 83
e 41 85
e 41 86
e 41 87
e 41 88
e 41 89
e 41 92
e 41 93
e 41 94
e 42 75
e 42 76
e 42 77
e 42 78
e 42 79
e 42 80
e 42 83
e 42 85
e 42 86
e 42 87
e 42 88
e 42 89
e 42 92
e 42 93
e 42 94
e 43 44
e 43 45
e 43 46
e 43 47
e 43 50
e 43 52
e 43 54
e 43 56
e 43 58
e 43 63
e 43 64
e 43 65
e 43 67
e 43 75
e 43 76
e 43 90
e 43 100
e 43 102
e 43 103
e 43 104
e 43 106
e 44 45
e 44 46
e 44 47
e 44 50
e 44 52
e 44 54
e 44 56
e 44 58
e 44 63
e 44 64
e 44 65
e 44 67
e 44 75
e 44 76
e 44 90
e 44 100
e 44 102
e 44 103
e 44 104
e 44 106
e 45 47
e 45 52
e 45 54
e 45 58
e 45 67
e 45 75
e 45 76
e 45 82
e 45 90
e 45 91
e 45 95
e 45 96
e 45 102
e 45 103
e 45 104
e 46 47
e 46 48
e 46 50
e 46 56
e 46 64
e 46 65
e 46 66
e 46 75
e 46 76
e 46 78
e 46 80
e 46 83
e 46 94
e 46 100
e 47 50
e 47 52
e 47 54
e 47 58
e 47 63
e 47 67
e 47 75
e 47 76
e 47 90
e 47 100
e 47 102
e 47 103
e 47 104
e 47 106
e 48 51
e 48 55
e 48 56
e 48 57
e 48 60
e 48 64
e 48 66
e 48 80
e 48 83
e 48 85
e 48 94
e 48 101
e 49 69
e 49 71
e 49 72
e 49 79
e 49 86
e 49 87
e 49 88
e 49 89
e 49 92
e 49 93
e 49 97
e 49 99
e 49 108
e 49 109
e 50 56
e 50 58
e 50 63
e 50 64
e 50 65
e 50 66
e 50 67
e 50 75
e 50 76
e 50 80
e 50 100
e 50 104
e 50 106
e 51 55
e 51 57
e 51 60
e 51 61
e 51 70
e 51 83
e 51 85
e 51 88
e 51 94
e 51 99
e 51 101
e 52 54
e 52 58
e 52 75
e 52 82
e 52 90
e 52 91
e 52 95
e 52 96
e 52 98
e 52 102
e 52 103
e 52 104
e 53 59
e 53 62
e 53 68
e 53 77
e 53 81
e 53 82
e 53 84
e 53 91
e 53 95
e 53 96
e 53 98
e 53 105
e 53 107
e 53 110
e 54 58
e 54 75
e 54 82
e 54 90
e 54 91
e 54 95
e 54 96
e 54 102
e 54 103
e 54 104
e 55 57
e 55 60
e 55 61
e 55 70
e 55 83
e 55 85
e 55 94
e 55 99
e 55 101
e 56 63
e 56 64
e 56 65
e 56 66
e 56 75
e 56 76
e 56 80
e 56 83
e 56 100
e 57 60
e 57 61
e 57 70
e 57 83
e 57 85
e 57 94
e 57 101
e 58 63
e 58 67
e 58 75
e 58 90
e 58 100
e 58 102
e 58 103
e 58 104
e 58 106
e 59 62
e 59 68
e 59 69
e 59 73
e 59 77
e 59 81
e 59 84
e 59 86
e 59 97
e 59 105
e 59 107
e 60 66
e 60 70
e 60 80
e 60 83
e 60 85
e 60 94
e 60 101
e 61 70
e 61 85
e 61 99
e 61 101
e 61 108
e 62 68
e 62 81
e 62 84
e 62 95
e 62 96
e 62 98
e 62 105
e 62 107
e 62 110
e 63 64
e 63 65
e 63 67
e 63 90
e 63 100
e 63 102
e 63 103
e 63 104
e 63 106
e 64 65
e 64 66
e 64 80
e 64 100
e 65 66
e 65 75
e 65 80
e 65 100
e 65 106
e 66 80
e 66 83
e 66 85
e 66 94
e 67 90
e 67 100
e 67 102
e 67 103
e 67 104
e 67 106
e 68 81
e 68 98
e 68 105
e 68 107
e 68 110
e 69 71
e 69 72
e 69 73
e 69 86
e 69 92
e 69 93
e 69 97
e 69 109
e 70 101
e 71 72
e 71 73
e 71 74
e 71 97
e 71 109
e 72 73
e 72 74
e 72 109
e 73 97
e 73 105
e 74 109
e 75 76
e 75 78
e 75 80
e 75 82
e 75 90
e 75 91
e 75 100
e 75 102
e 76 77
e 76 78
e 76 79
e 76 80
e 76 82
e 76 83
e 76 90
e 76 91
e 77 78
e 77 79
e 77 81
e 77 82
e 77 84
e 77 86
e 77 87
e 77 91
e 77 92
e 77 93
e 77 95
e 77 96
e 77 97
e 77 98
e 77 105
e 78 79
e 78 80
e 78 81
e 78 82
e 78 83
e 78 84
e 78 86
e 78 91
e 78 92
e 79 81
e 79 82
e 79 84
e 79 86
e 79 87
e 79 89
e 79 91
e 79 92
e 79 93
e 79 97
e 80 83
e 80 85
e 80 94
e 81 82
e 81 84
e 81 86
e 81 91
e 81 92
e 81 95
e 81 96
e 81 97
e 81 98
e 81 105
e 82 84
e 82 90
e 82 91
e 82 95
e 82 96
e 82 98
e 83 85
e 83 94
e 83 101
e 84 86
e 84 91
e 84 95
e 84 96
e 84 98
e 84 105
e 85 88
e 85 94
e 85 99
e 85 101
e 86 87
e 86 88
e 86 89
e 86 92
e 86 93
e 86 97
e 87 88
e 87 89
e 87 92
e 87 93
e 87 97
e 87 99
e 87 109
e 88 89
e 88 92
e 88 93
e 88 99
e 88 108
e 89 92
e 89 93
e 89 99
e 89 108
e 89 109
e 90 91
e 90 95
e 90 100
e 90 102
e 90 103
e 90 104
e 91 95
e 91 96
e 91 98
e 92 93
e 92 97
e 93 97
e 93 99
e 93 109
e 94 101
e 95 96
e 95 98
e 95 107
e 96 98
e 96 107
e 97 105
e 98 107
e 99 101
e 99 108
e 100 102
e 100 103
e 100 104
e 100 106
e 102 103
e 102 104
e 102 106
e 103 104
e 103 106
e 104 106
e 105 107
e 105 110
e 107 110
